p wcnf 582 2023 114318
114318 -47 -48 0
114318 -47 -49 0
114318 -48 -49 0
114318 47 48 49 0
114318 -97 -98 0
114318 -97 -99 0
114318 -98 -99 0
114318 97 98 99 0
114318 -159 -160 0
114318 -159 -161 0
114318 -160 -161 0
114318 159 160 161 0
114318 -162 -163 0
114318 -162 -164 0
114318 -163 -164 0
114318 162 163 164 0
114318 -167 -168 0
114318 -167 -169 0
114318 -168 -169 0
114318 167 168 169 0
114318 -170 -171 0
114318 -170 -172 0
114318 -171 -172 0
114318 170 171 172 0
114318 -178 -179 0
114318 -178 -180 0
114318 -179 -180 0
114318 178 179 180 0
114318 -190 -191 0
114318 -190 -192 0
114318 -191 -192 0
114318 190 191 192 0
114318 -194 -195 0
114318 -194 -196 0
114318 -195 -196 0
114318 194 195 196 0
114318 -259 -260 0
114318 -259 -261 0
114318 -260 -261 0
114318 259 260 261 0
114318 -265 -266 0
114318 -265 -267 0
114318 -266 -267 0
114318 265 266 267 0
114318 -270 -271 0
114318 -270 -272 0
114318 -271 -272 0
114318 270 271 272 0
114318 -274 -275 0
114318 -274 -276 0
114318 -275 -276 0
114318 274 275 276 0
114318 -279 -280 0
114318 -279 -281 0
114318 -280 -281 0
114318 279 280 281 0
114318 -289 -290 0
114318 -289 -291 0
114318 -290 -291 0
114318 289 290 291 0
114318 -299 -300 0
114318 -299 -301 0
114318 -300 -301 0
114318 299 300 301 0
114318 -303 -304 0
114318 -303 -305 0
114318 -304 -305 0
114318 303 304 305 0
114318 -335 -336 0
114318 -335 -337 0
114318 -335 -338 0
114318 -336 -337 0
114318 -336 -338 0
114318 -337 -338 0
114318 335 336 337 338 0
114318 -342 -343 0
114318 -342 -344 0
114318 -343 -344 0
114318 342 343 344 0
114318 -346 -347 0
114318 -346 -348 0
114318 -347 -348 0
114318 346 347 348 0
114318 -362 -363 0
114318 -362 -364 0
114318 -363 -364 0
114318 362 363 364 0
114318 -370 -371 0
114318 -370 -372 0
114318 -371 -372 0
114318 370 371 372 0
114318 -378 -379 0
114318 -378 -380 0
114318 -378 -381 0
114318 -379 -380 0
114318 -379 -381 0
114318 -380 -381 0
114318 378 379 380 381 0
114318 -385 -386 0
114318 -385 -387 0
114318 -386 -387 0
114318 385 386 387 0
114318 -393 -394 0
114318 -393 -395 0
114318 -394 -395 0
114318 393 394 395 0
114318 -401 -402 0
114318 -401 -403 0
114318 -402 -403 0
114318 401 402 403 0
114318 -407 -408 0
114318 -407 -409 0
114318 -408 -409 0
114318 407 408 409 0
114318 -447 -448 0
114318 -447 -449 0
114318 -447 -450 0
114318 -448 -449 0
114318 -448 -450 0
114318 -449 -450 0
114318 447 448 449 450 0
114318 -451 -452 0
114318 -451 -453 0
114318 -451 -454 0
114318 -452 -453 0
114318 -452 -454 0
114318 -453 -454 0
114318 451 452 453 454 0
114318 -455 -456 0
114318 -455 -457 0
114318 -455 -458 0
114318 -456 -457 0
114318 -456 -458 0
114318 -457 -458 0
114318 455 456 457 458 0
114318 -459 -460 0
114318 -459 -461 0
114318 -459 -462 0
114318 -460 -461 0
114318 -460 -462 0
114318 -461 -462 0
114318 459 460 461 462 0
114318 -463 -464 0
114318 -463 -465 0
114318 -463 -466 0
114318 -464 -465 0
114318 -464 -466 0
114318 -465 -466 0
114318 463 464 465 466 0
114318 -467 -468 0
114318 -467 -469 0
114318 -467 -470 0
114318 -468 -469 0
114318 -468 -470 0
114318 -469 -470 0
114318 467 468 469 470 0
114318 -475 -476 0
114318 -475 -477 0
114318 -476 -477 0
114318 475 476 477 0
114318 -478 -479 0
114318 -478 -480 0
114318 -479 -480 0
114318 478 479 480 0
114318 -481 -482 0
114318 -481 -483 0
114318 -482 -483 0
114318 481 482 483 0
114318 -484 -485 0
114318 -484 -486 0
114318 -485 -486 0
114318 484 485 486 0
114318 -491 -492 0
114318 -491 -493 0
114318 -492 -493 0
114318 491 492 493 0
114318 -494 -495 0
114318 -494 -496 0
114318 -495 -496 0
114318 494 495 496 0
114318 -499 -500 0
114318 -499 -501 0
114318 -499 -502 0
114318 -500 -501 0
114318 -500 -502 0
114318 -501 -502 0
114318 499 500 501 502 0
114318 -503 -504 0
114318 -503 -505 0
114318 -503 -506 0
114318 -504 -505 0
114318 -504 -506 0
114318 -505 -506 0
114318 503 504 505 506 0
114318 -507 -508 0
114318 -507 -509 0
114318 -508 -509 0
114318 507 508 509 0
114318 -510 -511 0
114318 -510 -512 0
114318 -511 -512 0
114318 510 511 512 0
114318 -513 -514 0
114318 -513 -515 0
114318 -514 -515 0
114318 513 514 515 0
114318 -516 -517 0
114318 -516 -518 0
114318 -517 -518 0
114318 516 517 518 0
114318 -519 -520 0
114318 -519 -521 0
114318 -520 -521 0
114318 519 520 521 0
114318 -522 -523 0
114318 -522 -524 0
114318 -523 -524 0
114318 522 523 524 0
114318 -527 -528 0
114318 -527 -529 0
114318 -527 -530 0
114318 -528 -529 0
114318 -528 -530 0
114318 -529 -530 0
114318 527 528 529 530 0
114318 -531 -532 0
114318 -531 -533 0
114318 -531 -534 0
114318 -532 -533 0
114318 -532 -534 0
114318 -533 -534 0
114318 531 532 533 534 0
114318 -535 -536 0
114318 -535 -537 0
114318 -536 -537 0
114318 535 536 537 0
114318 -538 -539 0
114318 -538 -540 0
114318 -539 -540 0
114318 538 539 540 0
114318 -549 -550 0
114318 -549 -551 0
114318 -550 -551 0
114318 549 550 551 0
114318 -552 -553 0
114318 -552 -554 0
114318 -553 -554 0
114318 552 553 554 0
436 3 -2 0
436 4 -3 0
436 5 -4 0
436 6 -5 0
436 7 -6 0
436 8 -7 0
347 9 -8 0
89 -9 8 0
308 10 -9 0
128 -10 9 0
290 11 -10 0
146 -11 10 0
256 12 -11 0
180 -12 11 0
226 14 -13 0
210 -14 13 0
114318 53 -15 0
93 -53 15 0
114318 16 -15 0
114318 53 16 -15 0
114318 53 -16 -15 0
114318 -53 16 -15 0
114318 -53 -16 15 0
218 18 -16 0
218 -18 16 0
114318 55 -17 0
114318 18 -17 0
114318 55 18 -17 0
114318 55 -18 -17 0
114318 -55 18 -17 0
114318 -55 -18 17 0
218 20 -18 0
218 -20 18 0
218 22 -20 0
218 -22 20 0
114318 -61 21 0
114318 22 21 0
114318 61 22 21 0
114318 61 -22 -21 0
114318 -61 22 21 0
114318 -61 -22 21 0
218 24 -22 0
218 -24 22 0
218 26 -24 0
218 -26 24 0
114318 67 -25 0
114318 26 -25 0
114318 67 26 -25 0
114318 67 -26 -25 0
114318 -67 26 -25 0
114318 -67 -26 25 0
218 28 -26 0
218 -28 26 0
114318 -69 27 0
114318 28 27 0
114318 69 28 27 0
114318 69 -28 -27 0
114318 -69 28 27 0
114318 -69 -28 27 0
218 30 -28 0
218 -30 28 0
114318 71 -29 0
114318 30 -29 0
114318 71 30 -29 0
114318 71 -30 -29 0
114318 -71 30 -29 0
114318 -71 -30 29 0
218 32 -30 0
218 -32 30 0
114318 -73 31 0
114318 32 31 0
114318 73 32 31 0
114318 73 -32 -31 0
114318 -73 32 31 0
114318 -73 -32 31 0
218 34 -32 0
218 -34 32 0
218 36 -34 0
218 -36 34 0
114318 79 -35 0
114318 36 -35 0
114318 79 36 -35 0
114318 79 -36 -35 0
114318 -79 36 -35 0
114318 -79 -36 35 0
218 38 -36 0
218 -38 36 0
114318 81 -37 0
114318 38 -37 0
114318 81 38 -37 0
114318 81 -38 -37 0
114318 -81 38 -37 0
114318 -81 -38 37 0
218 40 -38 0
218 -40 38 0
218 42 -40 0
218 -42 40 0
114318 -87 41 0
114318 42 41 0
114318 87 42 41 0
114318 87 -42 -41 0
114318 -87 42 41 0
114318 -87 -42 41 0
218 44 -42 0
218 -44 42 0
218 46 -44 0
218 -46 44 0
218 50 -46 0
218 -50 46 0
114318 -97 -48 0
114318 -98 -47 0
114318 -99 -47 0
114318 -99 -48 0
114318 50 -47 0
114318 50 -48 0
114318 -97 50 -47 0
114318 -97 50 -48 0
114318 -97 -50 -48 0
114318 -97 -50 -49 0
114318 -98 50 -47 0
114318 -98 50 -48 0
114318 -98 -50 -47 0
114318 -98 -50 -49 0
114318 -99 50 -47 0
114318 -99 50 -48 0
114318 -99 -50 -47 0
114318 -99 -50 -48 0
218 52 -50 0
218 -52 50 0
218 56 -54 0
218 -56 54 0
218 58 -56 0
218 -58 56 0
218 62 -58 0
218 -62 58 0
218 64 -62 0
218 -64 62 0
218 68 -64 0
218 -68 64 0
218 70 -68 0
218 -70 68 0
218 72 -70 0
218 -72 70 0
218 74 -72 0
218 -74 72 0
218 76 -74 0
218 -76 74 0
218 80 -76 0
218 -80 76 0
218 82 -80 0
218 -82 80 0
218 84 -82 0
218 -84 82 0
218 88 -84 0
218 -88 84 0
218 90 -88 0
218 -90 88 0
218 94 -90 0
218 -94 90 0
218 96 -92 0
218 -96 92 0
218 100 -94 0
218 -100 94 0
218 102 -100 0
218 -102 100 0
218 109 -108 0
218 -109 108 0
114318 176 -109 0
218 112 -109 0
218 -112 109 0
218 113 -112 0
218 -113 112 0
436 114 -113 0
114318 188 -114 0
436 118 -114 0
218 120 -119 0
218 -120 119 0
114318 209 -120 0
218 122 -120 0
218 -122 120 0
218 123 -122 0
218 -123 122 0
114318 215 -123 0
218 124 -123 0
218 -124 123 0
218 125 -124 0
218 -125 124 0
218 130 -126 0
218 -130 126 0
236 127 129 0
48 -127 -129 0
114318 -167 -127 0
114318 -169 127 0
114318 -167 128 -127 0
114318 -167 -128 -127 0
114318 -168 128 127 0
114318 -168 -128 -127 0
114318 -169 128 127 0
114318 -169 -128 127 0
218 135 -134 0
218 -135 134 0
114318 176 -135 0
218 138 -135 0
218 -138 135 0
218 139 -138 0
218 -139 138 0
436 140 -139 0
114318 188 -140 0
436 144 -140 0
218 147 -146 0
218 -147 146 0
114318 209 -147 0
218 148 -147 0
218 -148 147 0
218 149 -148 0
218 -149 148 0
114318 215 -149 0
218 151 -150 0
218 -151 150 0
114318 225 -151 0
218 152 -151 0
218 -152 151 0
218 156 -152 0
218 -156 152 0
236 153 155 0
48 -153 -155 0
114318 -167 -153 0
114318 -169 153 0
114318 -167 154 -153 0
114318 -167 -154 -153 0
114318 -168 154 153 0
114318 -168 -154 -153 0
114318 -169 154 153 0
114318 -169 -154 153 0
218 177 -173 0
218 -177 173 0
218 181 -177 0
218 -181 177 0
218 185 -181 0
218 -185 181 0
218 187 -183 0
218 -187 183 0
218 189 -185 0
218 -189 185 0
218 193 -189 0
218 -193 189 0
218 198 -193 0
218 -198 193 0
218 199 -198 0
218 -199 198 0
218 200 -199 0
218 -200 199 0
218 202 -200 0
218 -202 200 0
218 203 -202 0
218 -203 202 0
218 206 -203 0
218 -206 203 0
218 208 -204 0
218 -208 204 0
218 210 -206 0
218 -210 206 0
218 212 -210 0
218 -212 210 0
218 216 -212 0
218 -216 212 0
218 218 -216 0
218 -218 216 0
218 222 -218 0
218 -222 218 0
218 224 -220 0
218 -224 220 0
218 226 -222 0
218 -226 222 0
218 228 -226 0
218 -228 226 0
436 234 -233 0
436 235 -234 0
436 236 -235 0
114318 263 -236 0
436 237 -236 0
436 238 -237 0
114318 -270 -238 0
218 241 -240 0
218 -241 240 0
218 243 -241 0
218 -243 241 0
218 244 -243 0
218 -244 243 0
218 245 -244 0
218 -245 244 0
114318 -299 -245 0
218 247 -245 0
218 -247 245 0
70 252 -250 0
366 -252 250 0
114318 -356 251 0
114318 252 251 0
114318 356 252 251 0
114318 356 -252 -251 0
114318 -356 252 251 0
114318 -356 -252 251 0
70 256 -252 0
366 -256 252 0
218 258 -254 0
218 -258 254 0
70 262 -256 0
366 -262 256 0
114318 -362 -261 0
114318 -363 -259 0
114318 -363 -261 0
114318 -364 -259 0
114318 262 -259 0
114318 262 -261 0
114318 -362 262 -259 0
114318 -362 262 -261 0
114318 -362 -262 -260 0
114318 -362 -262 -261 0
114318 -363 262 -259 0
114318 -363 262 -261 0
114318 -363 -262 -259 0
114318 -363 -262 -261 0
114318 -364 262 -259 0
114318 -364 262 -261 0
114318 -364 -262 -259 0
114318 -364 -262 -260 0
70 264 -262 0
366 -264 262 0
114318 -366 263 0
114318 264 263 0
114318 366 264 263 0
114318 366 -264 -263 0
114318 -366 264 263 0
114318 -366 -264 263 0
114318 368 -267 0
114318 -368 -265 0
114318 -370 -272 0
114318 -371 -270 0
114318 -371 -272 0
114318 -372 -270 0
114318 273 -270 0
114318 273 -272 0
114318 -370 273 -270 0
114318 -370 273 -272 0
114318 -370 -273 -271 0
114318 -370 -273 -272 0
114318 -371 273 -270 0
114318 -371 273 -272 0
114318 -371 -273 -270 0
114318 -371 -273 -272 0
114318 -372 273 -270 0
114318 -372 273 -272 0
114318 -372 -273 -270 0
114318 -372 -273 -271 0
70 277 -273 0
366 -277 273 0
218 278 -277 0
218 -278 277 0
218 282 -278 0
218 -282 278 0
114318 -385 -280 0
114318 -386 -279 0
114318 -387 -279 0
114318 -387 -280 0
114318 282 -279 0
114318 282 -280 0
114318 -385 282 -279 0
114318 -385 282 -280 0
114318 -385 -282 -280 0
114318 -385 -282 -281 0
114318 -386 282 -279 0
114318 -386 282 -280 0
114318 -386 -282 -279 0
114318 -386 -282 -281 0
114318 -387 282 -279 0
114318 -387 282 -280 0
114318 -387 -282 -279 0
114318 -387 -282 -280 0
218 286 -282 0
218 -286 282 0
218 288 -284 0
218 -288 284 0
218 292 -286 0
218 -292 286 0
218 294 -288 0
218 -294 288 0
114318 -393 -291 0
114318 -394 -289 0
114318 -394 -291 0
114318 -395 -289 0
114318 292 -289 0
114318 292 -291 0
114318 -393 292 -289 0
114318 -393 292 -291 0
114318 -393 -292 -290 0
114318 -393 -292 -291 0
114318 -394 292 -289 0
114318 -394 292 -291 0
114318 -394 -292 -289 0
114318 -394 -292 -291 0
114318 -395 292 -289 0
114318 -395 292 -291 0
114318 -395 -292 -289 0
114318 -395 -292 -290 0
218 296 -292 0
218 -296 292 0
218 298 -294 0
218 -298 294 0
218 302 -296 0
218 -302 296 0
218 306 -302 0
218 -306 302 0
114318 -407 -304 0
114318 -408 -303 0
114318 -409 -303 0
114318 -409 -304 0
114318 306 -303 0
114318 306 -304 0
114318 -407 306 -303 0
114318 -407 306 -304 0
114318 -407 -306 -304 0
114318 -407 -306 -305 0
114318 -408 306 -303 0
114318 -408 306 -304 0
114318 -408 -306 -303 0
114318 -408 -306 -305 0
114318 -409 306 -303 0
114318 -409 306 -304 0
114318 -409 -306 -303 0
114318 -409 -306 -304 0
218 310 -306 0
218 -310 306 0
436 -312 311 0
114318 -342 -312 0
436 -313 312 0
114318 356 -314 0
436 -316 314 0
218 317 -315 0
218 -317 315 0
218 320 -319 0
218 -320 319 0
218 321 -320 0
218 -321 320 0
114318 -385 -321 0
218 324 -321 0
218 -324 321 0
218 325 -323 0
218 -325 323 0
218 326 -324 0
218 -326 324 0
218 327 -325 0
218 -327 325 0
114318 -393 -326 0
114318 -395 -326 0
218 329 -326 0
218 -329 326 0
218 331 -327 0
218 -331 327 0
218 332 -329 0
218 -332 329 0
218 345 -339 0
218 -345 339 0
218 349 -345 0
218 -349 345 0
218 353 -349 0
218 -353 349 0
218 355 -351 0
218 -355 351 0
218 357 -353 0
218 -357 353 0
218 359 -357 0
218 -359 357 0
218 365 -359 0
218 -365 359 0
218 367 -365 0
218 -367 365 0
218 369 -367 0
218 -369 367 0
218 373 -369 0
218 -373 369 0
218 375 -373 0
218 -375 373 0
218 382 -375 0
218 -382 375 0
218 384 -377 0
218 -384 377 0
218 388 -382 0
218 -388 382 0
218 390 -388 0
218 -390 388 0
218 396 -390 0
218 -396 390 0
218 398 -396 0
218 -398 396 0
218 404 -398 0
218 -404 398 0
218 406 -400 0
218 -406 400 0
218 410 -404 0
218 -410 404 0
218 412 -410 0
218 -412 410 0
218 421 -418 0
218 -421 418 0
218 422 -420 0
218 -422 420 0
218 423 -421 0
218 -423 421 0
218 425 -424 0
218 -425 424 0
218 426 -425 0
218 -426 425 0
218 427 -426 0
218 -427 426 0
218 428 -427 0
218 -428 427 0
218 430 -428 0
218 -430 428 0
218 431 -429 0
218 -431 429 0
218 432 -430 0
218 -432 430 0
218 434 -432 0
218 -434 432 0
218 437 -434 0
218 -437 434 0
218 439 -437 0
218 -439 437 0
218 442 -439 0
218 -442 439 0
218 443 -441 0
218 -443 441 0
218 444 -442 0
218 -444 442 0
218 445 -444 0
218 -445 444 0
114318 17 -1 0
114318 21 -2 0
114318 23 -3 0
114318 25 -4 0
114318 27 -5 0
114318 29 -6 0
114318 31 -7 0
114318 33 -8 0
114318 35 -9 0
114318 37 -10 0
114318 39 -11 0
114318 41 -12 0
114318 45 -13 0
218 184 113 0
114100 -184 -113 0
114318 -186 113 0
114305 205 -119 0
13 -205 119 0
114318 207 119 0
218 -207 -119 0
114318 211 -122 0
114318 213 122 0
114318 217 -124 0
114318 219 124 0
114318 221 -125 0
114318 223 125 0
114318 227 -126 0
114318 229 126 0
114100 184 -139 0
218 -184 139 0
114318 186 139 0
114318 -205 -146 0
218 207 -146 0
114318 -207 146 0
114318 -211 -148 0
114318 -213 148 0
114318 221 -150 0
114318 223 150 0
114318 227 -152 0
114318 229 152 0
114318 -481 -198 0
114318 -482 -198 0
114318 -484 198 0
114318 -485 198 0
132 487 199 0
114318 -487 -199 0
132 488 -199 0
114318 -488 199 0
114318 489 -200 0
42 -489 200 0
114318 490 200 0
42 -490 -200 0
114318 -497 -203 0
114318 -498 203 0
16 555 204 0
114318 -555 -204 0
16 556 -204 0
114318 -556 204 0
114318 251 -233 0
114318 253 233 0
114318 255 -234 0
114318 257 234 0
114318 285 -241 0
114318 287 241 0
114318 295 -244 0
114318 297 244 0
114318 -335 -311 0
114318 -337 -311 0
114318 -338 -311 0
218 340 -311 0
114318 -340 311 0
114318 567 -315 0
114318 568 315 0
114318 358 -316 0
114318 360 316 0
114318 569 -317 0
7 -569 317 0
114318 570 317 0
7 -570 -317 0
114318 -571 -318 0
114318 -572 318 0
114318 374 -319 0
114318 -376 319 0
114318 -378 -320 0
114318 -379 -320 0
114318 -380 -320 0
114318 383 320 0
114318 389 -324 0
114318 391 324 0
114318 -575 -325 0
114318 -576 325 0
114318 -577 -327 0
114318 -578 327 0
114318 -401 -332 0
114318 -403 -332 0
114318 -405 332 0
114318 -447 -415 0
114318 -448 -415 0
114318 -449 -415 0
262 -450 415 0
114318 -451 415 0
114318 -452 415 0
114318 -453 415 0
262 -454 -415 0
114318 543 -416 0
114318 544 416 0
114318 -471 -421 0
114318 -472 421 0
114318 -547 -422 0
114318 -548 422 0
114318 473 -423 0
114318 474 423 0
114318 -481 -424 0
114318 -482 -424 0
114318 -484 424 0
114318 -485 424 0
114318 487 -425 0
114318 488 425 0
114318 -489 -426 0
114318 -490 426 0
114318 -491 -427 0
114318 -493 -427 0
114318 -494 427 0
114318 -496 427 0
114318 497 -428 0
62 -497 428 0
114318 498 428 0
62 -498 -428 0
114318 -555 -429 0
114318 -556 429 0
114318 -499 -430 0
114318 -501 -430 0
114318 -502 -430 0
114318 -503 430 0
114318 -505 430 0
114318 -506 430 0
114318 557 -431 0
13 -557 431 0
114318 558 431 0
13 -558 -431 0
114318 -507 -432 0
8 -508 432 0
114318 -509 -432 0
114318 -510 432 0
8 -511 -432 0
114318 -512 432 0
114318 -519 -437 0
114318 -521 -437 0
114318 -522 437 0
114318 -524 437 0
114318 -527 -442 0
114318 -528 -442 0
114318 -529 -442 0
134 -530 442 0
114318 -531 442 0
114318 -532 442 0
114318 -533 442 0
134 -534 -442 0
114318 563 -443 0
7 -563 443 0
114318 564 443 0
7 -564 -443 0
114318 -535 -444 0
61 -536 444 0
114318 -537 -444 0
114318 -538 444 0
61 -539 -444 0
114318 -540 444 0
114318 541 -445 0
114318 542 445 0
114318 -565 -446 0
114318 -566 446 0
114318 -47 -14 0
114318 57 -20 -19 0
114318 -57 -20 19 0
114318 20 19 -59 0
114318 20 -19 59 0
114318 63 -24 -23 0
114318 -63 -24 23 0
114318 24 23 -65 0
114318 24 -23 65 0
114318 75 -34 -33 0
114318 -75 -34 33 0
114318 34 33 -77 0
114318 34 -33 77 0
114318 83 -40 -39 0
114318 -83 -40 39 0
114318 40 39 -85 0
114318 40 -39 85 0
114318 89 -44 -43 0
114318 -89 -44 43 0
114318 44 43 -91 0
114318 44 -43 91 0
114318 93 -46 -45 0
114318 -93 -46 45 0
114318 46 45 -95 0
114318 46 -45 95 0
114318 101 -52 -51 0
114318 -101 -52 51 0
114318 52 51 -103 0
114318 52 -51 103 0
93 -456 53 0
114318 -455 -54 -53 0
93 -456 54 -53 0
114318 -456 -54 53 0
114318 -457 -54 -53 0
114318 -458 -54 -53 0
93 53 -460 0
114318 54 53 -460 0
114318 54 -53 -459 0
114318 54 -53 -461 0
114318 54 -53 -462 0
93 -54 -53 -460 0
114318 -463 -56 -55 0
114318 -464 -56 55 0
114318 -465 -56 -55 0
114318 -466 -56 -55 0
114318 56 55 -468 0
114318 56 -55 -467 0
114318 56 -55 -469 0
114318 56 -55 -470 0
114318 471 -58 -57 0
114318 -471 -58 57 0
114318 58 57 -472 0
114318 58 -57 472 0
114318 547 -60 -59 0
114318 -547 -60 59 0
114318 60 59 -548 0
114318 60 -59 548 0
114318 473 -62 -61 0
114318 -473 -62 61 0
114318 62 61 -474 0
114318 62 -61 474 0
114318 -475 -64 -63 0
114318 -476 -64 -63 0
114318 -477 -64 63 0
114318 64 63 -480 0
114318 64 -63 -478 0
114318 64 -63 -479 0
114318 -549 -66 -65 0
114318 -550 -66 -65 0
114318 -551 -66 65 0
114318 66 65 -554 0
114318 66 -65 -552 0
114318 66 -65 -553 0
114318 -481 -68 -67 0
114318 -482 -68 -67 0
114318 -483 -68 67 0
114318 68 67 -486 0
114318 68 -67 -484 0
114318 68 -67 -485 0
114318 487 -70 -69 0
114318 -487 -70 69 0
114318 70 69 -488 0
114318 70 -69 488 0
114318 489 -72 71 0
114318 -489 -72 -71 0
114318 72 71 490 0
114318 72 -71 -490 0
114318 -491 -74 -73 0
114318 -492 -74 73 0
114318 -493 -74 -73 0
114318 74 73 -495 0
114318 74 -73 -494 0
114318 74 -73 -496 0
114318 497 -76 -75 0
114318 -497 -76 75 0
114318 76 75 -498 0
114318 76 -75 498 0
114318 555 -78 77 0
114318 -555 -78 -77 0
114318 78 77 556 0
114318 78 -77 -556 0
114318 -499 -80 -79 0
114318 -500 -80 79 0
114318 -501 -80 -79 0
114318 -502 -80 -79 0
114318 80 79 -504 0
114318 80 -79 -503 0
114318 80 -79 -505 0
114318 80 -79 -506 0
114318 -507 -82 -81 0
114318 -508 -82 81 0
114318 -509 -82 -81 0
114318 82 81 -511 0
114318 82 -81 -510 0
114318 82 -81 -512 0
114318 -513 -84 -83 0
114318 -514 -84 83 0
114318 -515 -84 -83 0
114318 84 83 -517 0
114318 84 -83 -516 0
114318 84 -83 -518 0
114318 559 -86 85 0
114318 -559 -86 -85 0
114318 86 85 560 0
114318 86 -85 -560 0
114318 -519 -88 -87 0
114318 -520 -88 87 0
114318 -521 -88 -87 0
114318 88 87 -523 0
114318 88 -87 -522 0
114318 88 -87 -524 0
114318 525 -90 -89 0
114318 -525 -90 89 0
114318 90 89 -526 0
114318 90 -89 526 0
114318 561 -92 -91 0
114318 -561 -92 91 0
114318 92 91 -562 0
114318 92 -91 562 0
114318 -527 -94 -93 0
114318 -528 -94 93 0
114318 -529 -94 -93 0
114318 -530 -94 -93 0
114318 94 93 -532 0
114318 94 -93 -531 0
114318 94 -93 -533 0
114318 94 -93 -534 0
114318 563 -96 95 0
114318 -563 -96 -95 0
114318 96 95 564 0
114318 96 -95 -564 0
114318 -535 -100 -98 0
114318 -535 -100 -99 0
114318 -536 -100 -97 0
114318 -536 -100 -99 0
114318 -537 -100 -97 0
114318 -537 -100 -98 0
114318 100 -97 -539 0
114318 100 -97 -540 0
114318 100 -98 -538 0
114318 100 -98 -540 0
114318 100 -99 -538 0
114318 100 -99 -539 0
114318 541 -102 -101 0
114318 -541 -102 101 0
114318 102 101 -542 0
114318 102 -101 542 0
114318 565 -104 103 0
114318 -565 -104 -103 0
114318 104 103 566 0
114318 104 -103 -566 0
114318 157 -106 -105 0
114318 -157 -106 105 0
114318 106 105 -158 0
114318 106 -105 158 0
114318 -170 -108 0
114318 -170 -108 107 0
114318 -170 -108 -107 0
114318 -171 -108 -107 0
114318 -172 -108 107 0
114318 108 107 -174 0
114318 108 -107 174 0
114318 -159 -111 0
16 -160 -110 0
48 -161 110 0
114318 -159 -111 110 0
114318 -159 -111 -110 0
16 -160 111 110 0
114318 -160 -111 -110 0
48 -161 111 -110 0
114318 -161 -111 110 0
114318 111 -162 0
48 110 -164 0
16 -110 -163 0
114318 111 110 -162 0
114318 111 110 -164 0
114318 111 -110 -162 0
114318 111 -110 -163 0
16 -111 110 -163 0
48 -111 -110 -164 0
114318 -178 -112 0
114318 112 182 0
114318 165 -116 -115 0
114318 -165 -116 115 0
114318 116 115 -166 0
114318 116 -115 166 0
114318 -190 -118 0
114318 -190 -118 117 0
114318 -190 -118 -117 0
114318 -191 -118 -117 0
114318 -192 -118 117 0
114318 118 -194 0
114318 118 117 -194 0
114318 118 117 -196 0
114318 118 -117 -194 0
114318 118 -117 -195 0
114318 231 -130 -129 0
114318 -231 -130 129 0
114318 130 129 -232 0
114318 130 -129 232 0
114318 157 -132 -131 0
114318 -157 -132 131 0
114318 132 131 -158 0
114318 132 -131 158 0
114318 -170 -134 0
114318 -170 -134 133 0
114318 -170 -134 -133 0
114318 -171 -134 -133 0
114318 -172 -134 133 0
114318 134 133 -174 0
114318 134 -133 174 0
114318 -159 -137 0
114318 -159 -137 136 0
114318 -159 -137 -136 0
114318 -160 -137 -136 0
114318 -161 -137 136 0
114318 137 -162 0
114318 137 136 -162 0
114318 137 136 -164 0
114318 137 -136 -162 0
114318 137 -136 -163 0
114318 -178 -138 0
114318 138 182 0
114318 165 -142 -141 0
114318 -165 -142 141 0
114318 142 141 -166 0
114318 142 -141 166 0
114318 -190 -144 0
114318 -190 -144 143 0
114318 -190 -144 -143 0
114318 -191 -144 -143 0
114318 -192 -144 143 0
114318 144 -194 0
114318 144 143 -194 0
114318 144 143 -196 0
114318 144 -143 -194 0
114318 144 -143 -195 0
114318 231 -156 -155 0
114318 -231 -156 155 0
114318 156 155 -232 0
114318 156 -155 232 0
114318 -447 -173 -171 0
114318 -447 -173 -172 0
114318 -448 -173 -170 0
114318 -448 -173 -172 0
114318 -449 -173 -170 0
114318 -449 -173 -171 0
114318 -450 -173 -171 0
114318 -450 -173 -172 0
114318 173 -170 -452 0
114318 173 -170 -453 0
114318 173 -171 -451 0
114318 173 -171 -453 0
114318 173 -171 -454 0
114318 173 -172 -451 0
114318 173 -172 -452 0
114318 173 -172 -454 0
114318 543 -175 -174 0
114318 -543 -175 174 0
114318 175 174 -544 0
114318 175 -174 544 0
114318 -455 -177 -176 0
114318 -456 -177 -176 0
114318 -457 -177 176 0
114318 -458 -177 -176 0
114318 177 176 -461 0
114318 177 -176 -459 0
114318 177 -176 -460 0
114318 177 -176 -462 0
114318 -463 -181 -179 0
114318 -463 -181 -180 0
114318 -464 -181 -178 0
114318 -464 -181 -180 0
114318 -465 -181 -178 0
114318 -465 -181 -179 0
114318 -466 -181 -179 0
114318 -466 -181 -180 0
114318 181 -178 -468 0
114318 181 -178 -469 0
114318 181 -179 -467 0
114318 181 -179 -469 0
114318 181 -179 -470 0
114318 181 -180 -467 0
114318 181 -180 -468 0
114318 181 -180 -470 0
114318 545 -183 182 0
114318 -545 -183 -182 0
114318 183 182 546 0
114318 183 -182 -546 0
114318 471 -185 -184 0
114318 -471 -185 184 0
114318 185 184 -472 0
114318 185 -184 472 0
114318 547 -187 -186 0
114318 -547 -187 186 0
114318 187 186 -548 0
114318 187 -186 548 0
114318 473 -189 -188 0
114318 -473 -189 188 0
114318 189 188 -474 0
114318 189 -188 474 0
114318 -475 -193 -191 0
114318 -475 -193 -192 0
114318 -476 -193 -190 0
114318 -476 -193 -192 0
114318 -477 -193 -190 0
114318 -477 -193 -191 0
114318 193 -190 -479 0
114318 193 -190 -480 0
114318 193 -191 -478 0
114318 193 -191 -480 0
114318 193 -192 -478 0
114318 193 -192 -479 0
114318 -549 -197 -195 0
114318 -549 -197 -196 0
114318 -550 -197 -194 0
114318 -550 -197 -196 0
114318 -551 -197 -194 0
114318 -551 -197 -195 0
114318 197 -194 -553 0
114318 197 -194 -554 0
114318 197 -195 -552 0
114318 197 -195 -554 0
114318 197 -196 -552 0
114318 197 -196 -553 0
114318 -491 -202 -201 0
114318 -492 -202 201 0
114318 -493 -202 -201 0
114318 202 201 -495 0
114318 202 -201 -494 0
114318 202 -201 -496 0
114318 -499 -206 0
114318 -500 -206 0
39 -501 -205 0
52 -502 205 0
114318 -499 -206 205 0
114318 -499 -206 -205 0
114318 -500 -206 205 0
114318 -500 -206 -205 0
39 -501 206 205 0
114318 -501 -206 -205 0
52 -502 206 -205 0
114318 -502 -206 205 0
114318 206 -503 0
114318 206 -504 0
52 205 -506 0
39 -205 -505 0
114318 206 205 -503 0
114318 206 205 -504 0
114318 206 205 -506 0
114318 206 -205 -503 0
114318 206 -205 -504 0
114318 206 -205 -505 0
39 -206 205 -505 0
52 -206 -205 -506 0
114318 557 -208 -207 0
114318 -557 -208 207 0
114318 208 207 -558 0
114318 208 -207 558 0
114318 -507 -210 -209 0
114318 -508 -210 -209 0
114318 -509 -210 209 0
114318 210 209 -512 0
114318 210 -209 -510 0
114318 210 -209 -511 0
114318 -513 -212 0
114318 -513 -212 211 0
114318 -513 -212 -211 0
114318 -514 -212 -211 0
114318 -515 -212 211 0
114318 212 -516 0
114318 212 211 -516 0
114318 212 211 -518 0
114318 212 -211 -516 0
114318 212 -211 -517 0
114318 559 -214 -213 0
114318 -559 -214 213 0
114318 214 213 -560 0
114318 214 -213 560 0
114318 -519 -216 -215 0
114318 -520 -216 215 0
114318 -521 -216 -215 0
114318 216 215 -523 0
114318 216 -215 -522 0
114318 216 -215 -524 0
114318 525 -218 -217 0
114318 -525 -218 217 0
114318 218 217 -526 0
114318 218 -217 526 0
114318 561 -220 -219 0
114318 -561 -220 219 0
114318 220 219 -562 0
114318 220 -219 562 0
114318 -527 -222 -221 0
114318 -528 -222 -221 0
114318 -529 -222 221 0
114318 -530 -222 -221 0
114318 222 221 -533 0
114318 222 -221 -531 0
114318 222 -221 -532 0
114318 222 -221 -534 0
114318 563 -224 -223 0
114318 -563 -224 223 0
114318 224 223 -564 0
114318 224 -223 564 0
114318 -535 -226 -225 0
114318 -536 -226 -225 0
114318 -537 -226 225 0
114318 226 225 -540 0
114318 226 -225 -538 0
114318 226 -225 -539 0
114318 541 -228 -227 0
114318 -541 -228 227 0
114318 228 227 -542 0
114318 228 -227 542 0
114318 565 -230 229 0
114318 -565 -230 -229 0
114318 230 229 566 0
114318 230 -229 -566 0
114318 -259 -235 0
114318 -265 -237 0
114318 237 268 0
114318 -279 -240 0
114318 -279 -240 239 0
114318 -279 -240 -239 0
114318 -280 -240 -239 0
114318 -281 -240 239 0
114318 240 239 -283 0
114318 240 -239 283 0
114318 -289 -243 0
114318 -289 -243 242 0
114318 -289 -243 -242 0
114318 -290 -243 -242 0
114318 -291 -243 242 0
114318 243 242 -293 0
114318 243 -242 293 0
114318 -303 -247 0
114318 -303 -247 246 0
114318 -303 -247 -246 0
114318 -304 -247 -246 0
114318 -305 -247 246 0
114318 247 246 -307 0
114318 247 -246 307 0
114318 352 -250 -249 0
114318 -352 -250 249 0
114318 250 249 -354 0
114318 250 -249 354 0
114318 567 -254 -253 0
114318 -567 -254 253 0
114318 254 253 -568 0
114318 254 -253 568 0
114318 358 -256 -255 0
114318 -358 -256 255 0
114318 256 255 -360 0
114318 256 -255 360 0
114318 569 -258 -257 0
114318 -569 -258 257 0
114318 258 257 -570 0
114318 258 -257 570 0
114318 571 -269 268 0
114318 -571 -269 -268 0
114318 269 268 572 0
114318 269 -268 -572 0
114318 -374 -274 0
114318 277 -274 0
148 277 -275 0
114318 -277 -276 0
114318 374 277 -274 0
114318 374 -277 -275 0
114318 374 -277 -276 0
114318 -374 277 -274 0
114318 -374 -277 -274 0
114318 -374 -277 -276 0
114318 -276 376 0
114318 277 -274 376 0
114318 277 -274 -376 0
114318 277 -275 -376 0
114318 277 -276 376 0
114318 -277 -276 376 0
114318 -277 -276 -376 0
114318 573 -284 -283 0
114318 -573 -284 283 0
114318 284 283 -574 0
114318 284 -283 574 0
114318 389 -286 -285 0
114318 -389 -286 285 0
114318 286 285 -391 0
114318 286 -285 391 0
114318 575 -288 287 0
114318 -575 -288 -287 0
114318 288 287 576 0
114318 288 -287 -576 0
114318 577 -294 -293 0
114318 -577 -294 293 0
114318 294 293 -578 0
114318 294 -293 578 0
114318 397 -296 295 0
114318 -397 -296 -295 0
114318 296 295 399 0
114318 296 -295 -399 0
114318 579 -298 297 0
114318 -579 -298 -297 0
114318 298 297 580 0
114318 298 -297 -580 0
114318 -402 -299 0
114318 -403 -299 0
114318 302 -299 0
114318 -401 302 -299 0
114318 -401 -302 -300 0
114318 -401 -302 -301 0
114318 -402 302 -299 0
114318 -402 -302 -299 0
114318 -402 -302 -301 0
114318 -403 302 -299 0
114318 -403 -302 -299 0
114318 -403 -302 -300 0
114318 302 -299 405 0
114318 302 -299 -405 0
114318 302 -300 -405 0
114318 302 -301 405 0
114318 581 -308 -307 0
114318 -581 -308 307 0
114318 308 307 -582 0
114318 308 -307 582 0
114318 411 -310 -309 0
114318 -411 -310 309 0
114318 310 309 -413 0
114318 310 -309 413 0
114318 -346 -313 0
114318 313 350 0
114318 573 -323 -322 0
114318 -573 -323 322 0
114318 323 322 -574 0
114318 323 -322 574 0
114318 397 -329 -328 0
114318 -397 -329 328 0
114318 329 328 -399 0
114318 329 -328 399 0
114318 579 -331 -330 0
114318 -579 -331 330 0
114318 331 330 -580 0
114318 331 -330 580 0
114318 581 -334 -333 0
114318 -581 -334 333 0
114318 334 333 -582 0
114318 334 -333 582 0
114318 -447 -339 -336 0
114318 -447 -339 -337 0
114318 -447 -339 -338 0
114318 -448 -339 -335 0
114318 -448 -339 -337 0
114318 -448 -339 -338 0
114318 -449 -339 -335 0
114318 -449 -339 -336 0
114318 -449 -339 -338 0
114318 -450 -339 -335 0
114318 -450 -339 -336 0
114318 -450 -339 -337 0
114318 339 -335 -452 0
114318 339 -335 -453 0
114318 339 -335 -454 0
114318 339 -336 -451 0
114318 339 -336 -453 0
114318 339 -336 -454 0
114318 339 -337 -451 0
114318 339 -337 -452 0
114318 339 -337 -454 0
114318 339 -338 -451 0
114318 339 -338 -452 0
114318 339 -338 -453 0
70 543 -340 0
70 543 341 340 0
114318 543 -341 -340 0
114318 -543 -341 340 0
70 -340 544 0
114318 341 340 -544 0
114318 341 -340 544 0
70 -341 340 544 0
114318 -455 -345 -343 0
114318 -455 -345 -344 0
114318 -456 -345 -343 0
114318 -456 -345 -344 0
114318 -457 -345 -342 0
114318 -457 -345 -344 0
114318 -458 -345 -342 0
114318 -458 -345 -343 0
114318 345 -342 -461 0
114318 345 -342 -462 0
114318 345 -343 -459 0
114318 345 -343 -460 0
114318 345 -343 -462 0
114318 345 -344 -459 0
114318 345 -344 -460 0
114318 345 -344 -461 0
114318 -463 -349 -347 0
114318 -463 -349 -348 0
114318 -464 -349 -346 0
114318 -464 -349 -348 0
114318 -465 -349 -346 0
114318 -465 -349 -347 0
114318 -466 -349 -347 0
114318 -466 -349 -348 0
114318 349 -346 -468 0
114318 349 -346 -469 0
114318 349 -347 -467 0
114318 349 -347 -469 0
114318 349 -347 -470 0
114318 349 -348 -467 0
114318 349 -348 -468 0
114318 349 -348 -470 0
114318 545 -351 350 0
114318 -545 -351 -350 0
114318 351 350 546 0
114318 351 -350 -546 0
114318 471 -353 352 0
114318 -471 -353 -352 0
114318 353 352 472 0
114318 353 -352 -472 0
114318 547 -355 354 0
114318 -547 -355 -354 0
114318 355 354 548 0
114318 355 -354 -548 0
114318 473 -357 -356 0
114318 -473 -357 356 0
114318 357 356 -474 0
114318 357 -356 474 0
114318 -475 -359 -358 0
114318 -476 -359 -358 0
114318 -477 -359 358 0
114318 359 358 -480 0
114318 359 -358 -478 0
114318 359 -358 -479 0
114318 -549 -361 -360 0
114318 -550 -361 -360 0
114318 -551 -361 360 0
114318 361 360 -554 0
114318 361 -360 -552 0
114318 361 -360 -553 0
114318 -481 -365 -363 0
114318 -481 -365 -364 0
114318 -482 -365 -362 0
114318 -482 -365 -364 0
114318 -483 -365 -362 0
114318 -483 -365 -363 0
114318 365 -362 -485 0
114318 365 -362 -486 0
114318 365 -363 -484 0
114318 365 -363 -486 0
114318 365 -364 -484 0
114318 365 -364 -485 0
114318 487 -367 -366 0
114318 -487 -367 366 0
114318 367 366 -488 0
114318 367 -366 488 0
114318 489 -369 368 0
114318 -489 -369 -368 0
114318 369 368 490 0
114318 369 -368 -490 0
114318 -491 -373 -371 0
114318 -491 -373 -372 0
114318 -492 -373 -370 0
114318 -492 -373 -372 0
114318 -493 -373 -370 0
114318 -493 -373 -371 0
114318 373 -370 -495 0
114318 373 -370 -496 0
114318 373 -371 -494 0
114318 373 -371 -496 0
114318 373 -372 -494 0
114318 373 -372 -495 0
114318 497 -375 -374 0
114318 -497 -375 374 0
114318 375 374 -498 0
114318 375 -374 498 0
114318 555 -377 -376 0
114318 -555 -377 376 0
114318 377 376 -556 0
114318 377 -376 556 0
114318 -499 -382 -379 0
114318 -499 -382 -380 0
114318 -499 -382 -381 0
114318 -500 -382 -378 0
114318 -500 -382 -380 0
114318 -500 -382 -381 0
114318 -501 -382 -378 0
114318 -501 -382 -379 0
114318 -501 -382 -381 0
114318 -502 -382 -378 0
114318 -502 -382 -379 0
114318 -502 -382 -380 0
114318 382 -378 -504 0
114318 382 -378 -505 0
114318 382 -378 -506 0
114318 382 -379 -503 0
114318 382 -379 -505 0
114318 382 -379 -506 0
114318 382 -380 -503 0
114318 382 -380 -504 0
114318 382 -380 -506 0
114318 382 -381 -503 0
114318 382 -381 -504 0
114318 382 -381 -505 0
114318 557 -384 -383 0
114318 -557 -384 383 0
114318 384 383 -558 0
114318 384 -383 558 0
114318 -507 -388 -386 0
114318 -507 -388 -387 0
114318 -508 -388 -385 0
114318 -508 -388 -387 0
114318 -509 -388 -385 0
114318 -509 -388 -386 0
114318 388 -385 -511 0
114318 388 -385 -512 0
114318 388 -386 -510 0
114318 388 -386 -512 0
114318 388 -387 -510 0
114318 388 -387 -511 0
114318 -513 -390 -389 0
114318 -514 -390 389 0
114318 -515 -390 -389 0
114318 390 389 -517 0
114318 390 -389 -516 0
114318 390 -389 -518 0
114318 559 -392 391 0
114318 -559 -392 -391 0
114318 392 391 560 0
114318 392 -391 -560 0
114318 -519 -396 -394 0
114318 -519 -396 -395 0
114318 -520 -396 -393 0
114318 -520 -396 -395 0
114318 -521 -396 -393 0
114318 -521 -396 -394 0
114318 396 -393 -523 0
114318 396 -393 -524 0
114318 396 -394 -522 0
114318 396 -394 -524 0
114318 396 -395 -522 0
114318 396 -395 -523 0
114318 525 -398 -397 0
114318 -525 -398 397 0
114318 398 397 -526 0
114318 398 -397 526 0
114318 561 -400 -399 0
114318 -561 -400 399 0
114318 400 399 -562 0
114318 400 -399 562 0
114318 -527 -404 -402 0
114318 -527 -404 -403 0
114318 -528 -404 -401 0
114318 -528 -404 -403 0
114318 -529 -404 -401 0
114318 -529 -404 -402 0
114318 -530 -404 -402 0
114318 -530 -404 -403 0
114318 404 -401 -532 0
114318 404 -401 -533 0
114318 404 -402 -531 0
114318 404 -402 -533 0
114318 404 -402 -534 0
114318 404 -403 -531 0
114318 404 -403 -532 0
114318 404 -403 -534 0
114318 563 -406 -405 0
114318 -563 -406 405 0
114318 406 405 -564 0
114318 406 -405 564 0
114318 -535 -410 -408 0
114318 -535 -410 -409 0
114318 -536 -410 -407 0
114318 -536 -410 -409 0
114318 -537 -410 -407 0
114318 -537 -410 -408 0
114318 410 -407 -539 0
114318 410 -407 -540 0
114318 410 -408 -538 0
114318 410 -408 -540 0
114318 410 -409 -538 0
114318 410 -409 -539 0
114318 541 -412 -411 0
114318 -541 -412 411 0
114318 412 411 -542 0
114318 412 -411 542 0
114318 565 -414 413 0
114318 -565 -414 -413 0
114318 414 413 566 0
114318 414 -413 -566 0
114318 -463 -418 0
114318 -464 -418 0
31 -465 -417 0
9 -466 417 0
114318 -463 -418 417 0
114318 -463 -418 -417 0
114318 -464 -418 417 0
114318 -464 -418 -417 0
31 -465 418 417 0
114318 -465 -418 -417 0
9 -466 418 -417 0
114318 -466 -418 417 0
114318 418 -467 0
114318 418 -468 0
9 417 -470 0
31 -417 -469 0
114318 418 417 -467 0
114318 418 417 -468 0
114318 418 417 -470 0
114318 418 -417 -467 0
114318 418 -417 -468 0
114318 418 -417 -469 0
31 -418 417 -469 0
9 -418 -417 -470 0
114318 545 -420 -419 0
114318 -545 -420 419 0
114318 420 419 -546 0
114318 420 -419 546 0
114318 -513 -434 0
114318 -513 -434 433 0
114318 -513 -434 -433 0
114318 -514 -434 -433 0
114318 -515 -434 433 0
114318 434 -516 0
114318 434 433 -516 0
114318 434 433 -518 0
114318 434 -433 -516 0
114318 434 -433 -517 0
114318 559 -436 -435 0
114318 -559 -436 435 0
114318 436 435 -560 0
114318 436 -435 560 0
114318 525 -439 -438 0
114318 -525 -439 438 0
114318 439 438 -526 0
114318 439 -438 526 0
114318 561 -441 -440 0
114318 -561 -441 440 0
114318 441 440 -562 0
114318 441 -440 562 0
114318 340 248 0
148 -340 -248 0
114318 -335 -248 0
114318 -336 -248 0
114318 -383 278 0
114318 -378 -278 0
114318 -381 -278 0
70 273 -265 0
70 273 -267 0
366 -273 -266 0
366 -265 264 0
70 -266 -264 0
366 -267 264 0
218 121 154 0
218 -121 -154 0
218 145 116 0
218 -145 -116 0
218 446 -443 0
218 -446 443 0
218 441 -436 0
218 -441 436 0
218 436 -431 0
218 -436 431 0
218 424 -423 0
218 -424 423 0
218 422 -429 0
218 -422 429 0
218 420 -416 0
218 -420 416 0
218 418 -415 0
218 -418 415 0
218 414 -406 0
218 -414 406 0
218 400 -392 0
218 -400 392 0
218 392 -384 0
218 -392 384 0
218 361 -377 0
218 -361 377 0
218 361 -355 0
218 -361 355 0
218 351 -341 0
218 -351 341 0
218 -332 -407 0
218 334 -331 0
218 -334 331 0
218 318 -323 0
218 -318 323 0
218 317 -318 0
218 -317 318 0
436 -314 313 0
218 308 -298 0
218 -308 298 0
218 269 -284 0
218 -269 284 0
366 248 -250 0
70 -248 250 0
218 309 -247 0
436 -238 -274 0
436 249 -233 0
151 230 232 0
151 228 231 0
218 230 -224 0
218 -230 224 0
218 220 -214 0
218 -220 214 0
218 214 -208 0
218 -214 208 0
218 197 -204 0
218 -197 204 0
218 197 -187 0
218 -197 187 0
218 183 -175 0
218 -183 175 0
218 150 -149 0
218 -150 149 0
218 145 -142 0
218 -145 142 0
218 137 -142 0
218 -137 142 0
218 137 -132 0
218 -137 132 0
218 126 -125 0
218 -126 125 0
218 121 -128 0
218 -121 128 0
218 111 -116 0
218 -111 116 0
218 111 -106 0
218 -111 106 0
218 104 -96 0
218 -104 96 0
218 92 -86 0
218 -92 86 0
218 78 -86 0
218 -78 86 0
218 66 -78 0
218 -66 78 0
218 66 -60 0
218 -66 60 0
436 145 121 0
436 -145 -121 0
93 1 -15 0
289 -1 15 0
218 -14 51 0
218 258 -269 0
218 -258 269 0
256 13 -12 0
180 -13 12 0
436 2 -1 0
353 1 0
7 3 0
40 4 0
28 5 0
137 6 0
61 8 0
32 -110 0
13 -119 0
436 146 0
70 157 0
70 158 0
43 165 0
43 166 0
387 -167 0
35 -169 0
436 201 0
13 231 0
13 232 0
436 233 0
218 240 0
148 -276 0
218 -319 0
22 417 0
245 -447 0
70 -448 0
245 -451 0
70 -452 0
21 -455 0
145 -458 0
21 -459 0
145 -462 0
131 -463 0
131 -467 0
89 -471 0
89 -472 0
129 473 0
129 474 0
84 -475 0
43 -476 0
84 -478 0
43 -479 0
26 -481 0
31 -482 0
26 -484 0
31 -485 0
326 -491 0
422 -493 0
326 -494 0
422 -496 0
152 -499 0
152 -503 0
218 -507 0
218 -510 0
48 -513 0
22 -515 0
48 -516 0
22 -518 0
180 -519 0
151 -521 0
180 -522 0
151 -524 0
182 -525 0
182 -526 0
174 -527 0
7 -529 0
174 -531 0
7 -533 0
8 -537 0
8 -540 0
241 541 0
241 542 0
22 545 0
22 546 0
89 -547 0
89 -548 0
84 -549 0
43 -550 0
84 -552 0
43 -553 0
22 -559 0
22 -560 0
182 -561 0
182 -562 0
337 -565 0
337 -566 0
129 567 0
129 568 0
159 -571 0
159 -572 0
8 573 0
8 574 0
22 -575 0
22 -576 0
151 -577 0
151 -578 0
182 -579 0
182 -580 0
52 581 0
52 582 0
